(set-logic QF_LRA)
(declare-fun fluent_started_i0_t2@1 () Bool)
(declare-fun fluent_treated_i0_t0@1 () Bool)
(declare-fun fluent_started_i0_t0@0 () Bool)
(declare-fun fluent_started_i0_t1@0 () Bool)
(declare-fun fluent_started_i0_t2@0 () Bool)
(declare-fun fluent_treated_i0_t1@1 () Bool)
(declare-fun fluent_ready_i0_t0@0 () Bool)
(declare-fun fluent_ready_i0_t1@0 () Bool)
(declare-fun fluent_ready_i0_t2@0 () Bool)
(declare-fun fluent_treated_i0_t2@1 () Bool)
(declare-fun fluent_busy_@0 () Bool)
(declare-fun fluent_treated_i0_t0@0 () Bool)
(declare-fun fluent_treated_i0_t1@0 () Bool)
(declare-fun fluent_treated_i0_t2@0 () Bool)
(declare-fun fluent_ready_i0_t0@1 () Bool)
(declare-fun fluent_ready_i0_t1@1 () Bool)
(declare-fun fluent_ready_i0_t2@1 () Bool)
(declare-fun act_make_treatment@1 () Bool)
(declare-fun fluent_counter_t0@0 () Real)
(declare-fun fluent_counter_t1@0 () Real)
(declare-fun fluent_counter_t2@0 () Real)
(declare-fun dur_make_treatment@1 () Real)
(declare-fun t@1 () Real)
(declare-fun parameter_make_treatment_t@1 () Real)
(declare-fun parameter_make_treatment_i@1 () Real)
(declare-fun parameter_make_treatment_next@1 () Real)
(declare-fun fluent_counter_t0@1 () Real)
(declare-fun fluent_counter_t1@1 () Real)
(declare-fun fluent_counter_t2@1 () Real)
(declare-fun fluent_busy_@1 () Bool)
(declare-fun fluent_started_i0_t0@1 () Bool)
(declare-fun fluent_started_i0_t1@1 () Bool)
(assert (let ((.def_0 (= parameter_make_treatment_i@1 0.0))) (let ((.def_1 (= parameter_make_treatment_t@1 3.0))) (let ((.def_2 (= parameter_make_treatment_t@1 2.0))) (let ((.def_3 (= parameter_make_treatment_t@1 1.0))) (let ((.def_4 (or .def_3 .def_2 .def_1))) (let ((.def_5 (<= fluent_counter_t2@1 31.0))) (let ((.def_6 (<= 0.0 fluent_counter_t2@1))) (let ((.def_7 (<= fluent_counter_t1@1 31.0))) (let ((.def_8 (<= 0.0 fluent_counter_t1@1))) (let ((.def_9 (<= fluent_counter_t0@1 31.0))) (let ((.def_10 (= parameter_make_treatment_next@1 3.0))) (let ((.def_11 (= parameter_make_treatment_next@1 2.0))) (let ((.def_12 (= parameter_make_treatment_next@1 1.0))) (let ((.def_13 (or .def_12 .def_11 .def_10))) (let ((.def_14 (<= 0.0 fluent_counter_t0@1))) (let ((.def_15 (and act_make_treatment@1 true .def_1))) (let ((.def_16 (= fluent_counter_t2@0 fluent_counter_t2@1))) (let ((.def_17 (not .def_16))) (let ((.def_18 (=> .def_17 .def_15))) (let ((.def_19 (and act_make_treatment@1 true .def_2))) (let ((.def_20 (= fluent_counter_t1@0 fluent_counter_t1@1))) (let ((.def_21 (not .def_20))) (let ((.def_22 (=> .def_21 .def_19))) (let ((.def_23 (and act_make_treatment@1 true .def_3))) (let ((.def_24 (= fluent_counter_t0@0 fluent_counter_t0@1))) (let ((.def_25 (not .def_24))) (let ((.def_26 (=> .def_25 .def_23))) (let ((.def_27 (+ t@1 10.0))) (let ((.def_28 (= t@1 .def_27))) (let ((.def_29 (and act_make_treatment@1 true .def_28 .def_0 .def_10))) (let ((.def_30 (= fluent_ready_i0_t2@0 fluent_ready_i0_t2@1))) (let ((.def_31 (not .def_30))) (let ((.def_32 (=> .def_31 .def_29))) (let ((.def_33 (and act_make_treatment@1 true .def_28 .def_0 .def_11))) (let ((.def_34 (= fluent_ready_i0_t1@0 fluent_ready_i0_t1@1))) (let ((.def_35 (not .def_34))) (let ((.def_36 (=> .def_35 .def_33))) (let ((.def_37 (and act_make_treatment@1 true .def_28 .def_0 .def_12))) (let ((.def_38 (= fluent_ready_i0_t0@0 fluent_ready_i0_t0@1))) (let ((.def_39 (not .def_38))) (let ((.def_40 (=> .def_39 .def_37))) (let ((.def_41 (and act_make_treatment@1 true .def_0 .def_1))) (let ((.def_42 (= fluent_started_i0_t2@0 fluent_started_i0_t2@1))) (let ((.def_43 (not .def_42))) (let ((.def_44 (=> .def_43 .def_41))) (let ((.def_45 (and act_make_treatment@1 true .def_0 .def_2))) (let ((.def_46 (= fluent_started_i0_t1@0 fluent_started_i0_t1@1))) (let ((.def_47 (not .def_46))) (let ((.def_48 (=> .def_47 .def_45))) (let ((.def_49 (and act_make_treatment@1 true .def_0 .def_3))) (let ((.def_50 (= fluent_started_i0_t0@0 fluent_started_i0_t0@1))) (let ((.def_51 (not .def_50))) (let ((.def_52 (=> .def_51 .def_49))) (let ((.def_53 (+ t@1 4.0))) (let ((.def_54 (= t@1 .def_53))) (let ((.def_55 (and act_make_treatment@1 true .def_54 .def_0 .def_1))) (let ((.def_56 (= fluent_treated_i0_t2@0 fluent_treated_i0_t2@1))) (let ((.def_57 (not .def_56))) (let ((.def_58 (=> .def_57 .def_55))) (let ((.def_59 (and act_make_treatment@1 true .def_54 .def_0 .def_2))) (let ((.def_60 (= fluent_treated_i0_t1@0 fluent_treated_i0_t1@1))) (let ((.def_61 (not .def_60))) (let ((.def_62 (=> .def_61 .def_59))) (let ((.def_63 (and act_make_treatment@1 true .def_54 .def_0 .def_3))) (let ((.def_64 (= fluent_treated_i0_t0@0 fluent_treated_i0_t0@1))) (let ((.def_65 (not .def_64))) (let ((.def_66 (=> .def_65 .def_63))) (let ((.def_67 (and act_make_treatment@1 true .def_54))) (let ((.def_68 (and act_make_treatment@1 true))) (let ((.def_69 (and .def_68 .def_67))) (let ((.def_70 (not .def_69))) (let ((.def_71 (or .def_68 .def_67))) (let ((.def_72 (= fluent_busy_@0 fluent_busy_@1))) (let ((.def_73 (not .def_72))) (let ((.def_74 (=> .def_73 .def_71))) (let ((.def_75 (and .def_74 .def_70 .def_66 .def_62 .def_58 .def_52 .def_48 .def_44 .def_40 .def_36 .def_32 .def_26 .def_22 .def_18))) (let ((.def_76 (<= 0.0 t@1))) (let ((.def_77 (and .def_0 .def_11))) (let ((.def_78 (ite .def_77 fluent_ready_i0_t1@1 fluent_ready_i0_t0@1))) (let ((.def_79 (and .def_0 .def_10))) (let ((.def_80 (ite .def_79 fluent_ready_i0_t2@1 .def_78))) (let ((.def_81 (= .def_80 true))) (let ((.def_82 (=> true .def_81))) (let ((.def_83 (and .def_28 .def_82))) (let ((.def_84 (= fluent_busy_@1 false))) (let ((.def_85 (=> true .def_84))) (let ((.def_86 (and .def_0 .def_2))) (let ((.def_87 (ite .def_86 fluent_treated_i0_t1@1 fluent_treated_i0_t0@1))) (let ((.def_88 (and .def_0 .def_1))) (let ((.def_89 (ite .def_88 fluent_treated_i0_t2@1 .def_87))) (let ((.def_90 (= .def_89 true))) (let ((.def_91 (=> true .def_90))) (let ((.def_92 (and .def_54 .def_91 .def_85))) (let ((.def_93 (ite .def_86 fluent_started_i0_t1@1 fluent_started_i0_t0@1))) (let ((.def_94 (ite .def_88 fluent_started_i0_t2@1 .def_93))) (let ((.def_95 (= .def_94 true))) (let ((.def_96 (=> true .def_95))) (let ((.def_97 (= fluent_busy_@1 true))) (let ((.def_98 (=> true .def_97))) (let ((.def_99 (ite .def_2 fluent_counter_t1@0 fluent_counter_t0@0))) (let ((.def_100 (ite .def_1 fluent_counter_t2@0 .def_99))) (let ((.def_101 (+ .def_100 1.0))) (let ((.def_102 (ite .def_2 fluent_counter_t1@1 fluent_counter_t0@1))) (let ((.def_103 (ite .def_1 fluent_counter_t2@1 .def_102))) (let ((.def_104 (= .def_103 .def_101))) (let ((.def_105 (=> true .def_104))) (let ((.def_106 (= t@1 t@1))) (let ((.def_107 (and .def_106 .def_105 .def_98 .def_96))) (let ((.def_108 (ite .def_77 fluent_started_i0_t1@0 fluent_started_i0_t0@0))) (let ((.def_109 (ite .def_79 fluent_started_i0_t2@0 .def_108))) (let ((.def_110 (+ t@1 dur_make_treatment@1))) (let ((.def_111 (<= .def_110 t@1))) (let ((.def_112 (< (- 1.0) .def_110))) (let ((.def_113 (and .def_112 .def_111))) (let ((.def_114 (=> .def_113 .def_109))) (let ((.def_115 (ite .def_86 fluent_ready_i0_t1@0 fluent_ready_i0_t0@0))) (let ((.def_116 (ite .def_88 fluent_ready_i0_t2@0 .def_115))) (let ((.def_117 (ite .def_86 fluent_started_i0_t1@0 fluent_started_i0_t0@0))) (let ((.def_118 (ite .def_88 fluent_started_i0_t2@0 .def_117))) (let ((.def_119 (not .def_118))) (let ((.def_120 (ite .def_86 fluent_treated_i0_t1@0 fluent_treated_i0_t0@0))) (let ((.def_121 (ite .def_88 fluent_treated_i0_t2@0 .def_120))) (let ((.def_122 (not .def_121))) (let ((.def_123 (not fluent_busy_@0))) (let ((.def_124 (and .def_2 .def_12))) (let ((.def_125 (ite .def_124 false false))) (let ((.def_126 (and .def_1 .def_12))) (let ((.def_127 (ite .def_126 false .def_125))) (let ((.def_128 (and .def_3 .def_11))) (let ((.def_129 (ite .def_128 true .def_127))) (let ((.def_130 (and .def_2 .def_11))) (let ((.def_131 (ite .def_130 false .def_129))) (let ((.def_132 (and .def_1 .def_11))) (let ((.def_133 (ite .def_132 false .def_131))) (let ((.def_134 (and .def_3 .def_10))) (let ((.def_135 (ite .def_134 false .def_133))) (let ((.def_136 (and .def_2 .def_10))) (let ((.def_137 (ite .def_136 true .def_135))) (let ((.def_138 (and .def_1 .def_10))) (let ((.def_139 (ite .def_138 false .def_137))) (let ((.def_140 (= 0.0 .def_100))) (let ((.def_141 (and .def_140 .def_139 .def_123 .def_122 .def_119 .def_116))) (let ((.def_142 (<= t@1 t@1))) (let ((.def_143 (< (- 1.0) t@1))) (let ((.def_144 (and .def_143 .def_142))) (let ((.def_145 (=> .def_144 .def_141))) (let ((.def_146 (<= dur_make_treatment@1 15.0))) (let ((.def_147 (<= 15.0 dur_make_treatment@1))) (let ((.def_148 (and .def_147 .def_146))) (let ((.def_149 (and .def_148 .def_111 .def_145 .def_114 .def_107 .def_92 .def_83))) (let ((.def_150 (=> act_make_treatment@1 .def_149))) (let ((.def_151 (<= 0.0 fluent_counter_t0@0))) (let ((.def_152 (<= fluent_counter_t2@0 31.0))) (let ((.def_153 (<= 0.0 fluent_counter_t2@0))) (let ((.def_154 (<= fluent_counter_t1@0 31.0))) (let ((.def_155 (<= 0.0 fluent_counter_t1@0))) (let ((.def_156 (<= fluent_counter_t0@0 31.0))) (let ((.def_157 (= fluent_counter_t2@0 0.0))) (let ((.def_158 (= fluent_counter_t1@0 0.0))) (let ((.def_159 (= fluent_counter_t0@0 0.0))) (let ((.def_160 (= false false))) (let ((.def_161 (= fluent_ready_i0_t2@0 false))) (let ((.def_162 (= fluent_ready_i0_t1@0 false))) (let ((.def_163 (= fluent_started_i0_t1@0 false))) (let ((.def_164 (= fluent_started_i0_t0@0 false))) (let ((.def_165 (= fluent_treated_i0_t2@0 false))) (let ((.def_166 (= fluent_treated_i0_t1@0 false))) (let ((.def_167 (= fluent_treated_i0_t0@0 false))) (let ((.def_168 (= fluent_busy_@0 false))) (let ((.def_169 (= fluent_ready_i0_t0@0 true))) (let ((.def_170 (= fluent_started_i0_t2@0 true))) (let ((.def_171 (= true true))) (let ((.def_172 (= 0.0 0.0))) (let ((.def_173 (and .def_172 .def_171 .def_171 .def_170 .def_169 .def_168 .def_167 .def_166 .def_165 .def_164 .def_163 .def_162 .def_161 .def_160 .def_160 .def_160 .def_160 .def_160 .def_160 .def_160 .def_159 .def_158 .def_157 .def_156 .def_155 .def_154 .def_153 .def_152 .def_151))) (let ((.def_174 (and .def_173 .def_150 .def_76 true true .def_75 .def_14 .def_13 .def_9 .def_8 .def_7 .def_6 .def_5 .def_4 .def_0 true))) .def_174))))))))))))))))))))))))))))))))))))))))))))))))))))))))))))))))))))))))))))))))))))))))))))))))))))))))))))))))))))))))))))))))))))))))))))))))))))))))))))))))))))))))))))))))
(check-sat)

--------------------------------------------------------------------------------
